3490
1625
2982
3720
3003
1285
2407
705
740
1471
201
842
2126
167
3786
3378
3706
862
2497
1010
1453
1406
928
1552
3503
1219
2081
1925
2379
3061
2441
2431
516
2536
1852
1861
3770
2772
1046
1099
969
2116
2547
998
1565
3141
2102
2160
2817
3614
4018
1422
463
3222
1188
892
3909
291
2576
2783
2529
3794
1117
277
2151
2768
346
1913
801
2382
1974
414
3067
2199
3935
2994
1058
1892
3970
2762
1710
3827
3661
3598
3959
3666
2481
1010
3180
586
1423
2902
2345
2677
854
2147
1685
3933
1293
1367
